Instance name:    bar-n100-4
Authors:          PDPTW Solver
Date:             2025-11-20
Reference:        LNS with SA/RTR
Solution
Route 1 : 7 48 98 57
Route 2 : 10 8 13 60 63 58 37 87
Route 3 : 38 88 4 11 61 54
Route 4 : 9 1 59 39 51 34 89 84
Route 5 : 19 17 67 69 32 82 24 74
Route 6 : 26 76 2 52 42 92 41 91
Route 7 : 6 56 20 70 29 79 45 12 62 95
Route 8 : 50 28 100 78 30 80
Route 9 : 27 77 31 81 25 23 75 73
Route 10 : 47 36 86 97 22 14 64 72
Route 11 : 46 96 16 66 49 44 94 15 99 65
Route 12 : 3 21 71 53 35 43 85 93
Route 13 : 18 5 55 68 33 83 40 90
